c Maximum weighted clique instances generated from exactcolors.
c cutoff: 2485513.
c A clique of value > scalef (2485513) defines an improving stable sets for coloring.
p edge 54 0
n 1 2485513
n 2 2485513
n 3 2485513
n 4 2485513
n 5 2485513
n 6 2485513
n 7 2485513
n 8 2485513
n 9 2485513
n 10 2485513
n 11 2485513
n 12 2485513
n 13 2485513
n 14 2485513
n 15 2485513
n 16 2485513
n 17 2485512
n 18 2485513
n 19 2485512
n 20 2485512
n 21 2485513
n 22 2485513
n 23 2485513
n 24 2485512
n 25 2485512
n 26 2485512
n 27 2485513
n 28 2485513
n 29 2485513
n 30 2485513
n 31 2485513
n 32 2485513
n 33 2485513
n 34 2485513
n 35 2485513
n 36 2485512
n 37 2485513
n 38 2485512
n 39 2485513
n 40 2485513
n 41 2485513
n 42 2485513
n 43 2485513
n 44 2485513
n 45 2485512
n 46 2485513
n 47 2485512
n 48 2485512
n 49 2485512
n 50 2485512
n 51 2485512
n 52 2485512
n 53 2485512
n 54 2485512
